
Gurobi 8.1.1 (linux64, Python) logging started Mon Mar  9 14:00:22 2020

Academic license - for non-commercial use only

Gurobi 8.1.1 (linux64, Python) logging started Mon Mar  9 14:05:25 2020

Academic license - for non-commercial use only

Gurobi 8.1.1 (linux64, Python) logging started Mon Mar  9 14:07:37 2020

Academic license - for non-commercial use only

Gurobi 8.1.1 (linux64, Python) logging started Mon Mar  9 14:23:56 2020

Academic license - for non-commercial use only

Gurobi 8.1.1 (linux64, Python) logging started Mon Mar  9 14:33:02 2020

Academic license - for non-commercial use only

Gurobi 8.1.1 (linux64, Python) logging started Mon Mar  9 15:21:13 2020

Academic license - for non-commercial use only
